####################################################################### 
# 
# This file contains crystal structure data downloaded from the 
# Cambridge Structural Database (CSD) hosted by the Cambridge 
# Crystallographic Data Centre (CCDC).
# 
# Full information about CCDC data access policies and citation 
# guidelines are available at http://www.ccdc.cam.ac.uk/access/V1 
# 
# Audit and citation data items may have been added by the CCDC. 
# Please retain this information to preserve the provenance of 
# this file and to allow appropriate attribution of the data. 
# 
#######################################################################

data_020413c
_audit_block_doi                 10.5517/cc7vnb1
_database_code_depnum_ccdc_archive 'CCDC 234153'
_audit_update_record             
;
2004-03-18 deposited with the CCDC.	2023-03-03 downloaded from the CCDC.
;

_audit_creation_method           SHELXL-97
_chemical_name_systematic        
;
?
;
_chemical_name_common            ?
_chemical_melting_point          ?
_chemical_formula_moiety         ?
_chemical_formula_sum            'C13 H9 N3 O8'
_chemical_formula_weight         335.23

loop_
_atom_type_symbol
_atom_type_description
_atom_type_scat_dispersion_real
_atom_type_scat_dispersion_imag
_atom_type_scat_source
C C 0.0033 0.0016 'International Tables Vol C Tables 4.2.6.8 and 6.1.1.4'
H H 0.0000 0.0000 'International Tables Vol C Tables 4.2.6.8 and 6.1.1.4'
N N 0.0061 0.0033 'International Tables Vol C Tables 4.2.6.8 and 6.1.1.4'
O O 0.0106 0.0060 'International Tables Vol C Tables 4.2.6.8 and 6.1.1.4'

_symmetry_cell_setting           Monoclinic
_symmetry_space_group_name_H-M   P21/n

loop_
_symmetry_equiv_pos_as_xyz
'x, y, z'
'-x+1/2, y+1/2, -z+1/2'
'-x, -y, -z'
'x-1/2, -y-1/2, z-1/2'

_cell_length_a                   14.053(6)
_cell_length_b                   5.046(2)
_cell_length_c                   20.105(8)
_cell_angle_alpha                90.00
_cell_angle_beta                 103.573(8)
_cell_angle_gamma                90.00
_cell_volume                     1385.8(10)
_cell_formula_units_Z            4
_cell_measurement_temperature    293(2)
_cell_measurement_reflns_used    ?
_cell_measurement_theta_min      ?
_cell_measurement_theta_max      ?

_exptl_crystal_description       ?
_exptl_crystal_colour            ?
_exptl_crystal_size_max          0.25
_exptl_crystal_size_mid          0.20
_exptl_crystal_size_min          0.10
_exptl_crystal_density_meas      ?
_exptl_crystal_density_diffrn    1.607
_exptl_crystal_density_method    'not measured'
_exptl_crystal_F_000             688
_exptl_absorpt_coefficient_mu    0.137
_exptl_absorpt_correction_type   MULTI-SCAN
_exptl_absorpt_correction_T_min  0.9666
_exptl_absorpt_correction_T_max  0.9865
_exptl_absorpt_process_details   SADABS

_exptl_special_details           
;
?
;

_diffrn_ambient_temperature      293(2)
_diffrn_radiation_wavelength     0.71073
_diffrn_radiation_type           MoK\a
_diffrn_radiation_source         'fine-focus sealed tube'
_diffrn_radiation_monochromator  graphite
_diffrn_measurement_device_type  'Bruker P4'
_diffrn_measurement_method       '\w scans'
_diffrn_detector_area_resol_mean ?
_diffrn_standards_number         ?
_diffrn_standards_interval_count ?
_diffrn_standards_interval_time  ?
_diffrn_standards_decay_%        ?
_diffrn_reflns_number            4526
_diffrn_reflns_av_R_equivalents  0.0407
_diffrn_reflns_av_sigmaI/netI    0.0496
_diffrn_reflns_limit_h_min       -15
_diffrn_reflns_limit_h_max       13
_diffrn_reflns_limit_k_min       -5
_diffrn_reflns_limit_k_max       5
_diffrn_reflns_limit_l_min       -22
_diffrn_reflns_limit_l_max       17
_diffrn_reflns_theta_min         1.61
_diffrn_reflns_theta_max         23.35
_reflns_number_total             2007
_reflns_number_gt                1239
_reflns_threshold_expression     >2sigma(I)

_computing_data_collection       'Bruker XSCANS'
_computing_cell_refinement       'Bruker XSCANS'
_computing_data_reduction        'Bruker SHELXTL'
_computing_structure_solution    'SHELXS-97 (Sheldrick, 1990)'
_computing_structure_refinement  'SHELXL-97 (Sheldrick, 1997)'
_computing_molecular_graphics    'Bruker SHELXTL'
_computing_publication_material  'Bruker SHELXTL'

_refine_special_details          
;
Refinement of F^2^ against ALL reflections.  The weighted R-factor wR and
goodness of fit S are based on F^2^, conventional R-factors R are based
on F, with F set to zero for negative F^2^. The threshold expression of
F^2^ > 2sigma(F^2^) is used only for calculating R-factors(gt) etc. and is
not relevant to the choice of reflections for refinement.  R-factors based
on F^2^ are statistically about twice as large as those based on F, and R-
factors based on ALL data will be even larger.
;

_refine_ls_structure_factor_coef Fsqd
_refine_ls_matrix_type           full
_refine_ls_weighting_scheme      calc
_refine_ls_weighting_details     
'calc w=1/[\s^2^(Fo^2^)+(0.0532P)^2^+0.2730P] where P=(Fo^2^+2Fc^2^)/3'
_atom_sites_solution_primary     direct
_atom_sites_solution_secondary   difmap
_atom_sites_solution_hydrogens   geom
_refine_ls_hydrogen_treatment    mixed
_refine_ls_extinction_method     none
_refine_ls_extinction_coef       ?
_refine_ls_number_reflns         2007
_refine_ls_number_parameters     225
_refine_ls_number_restraints     2
_refine_ls_R_factor_all          0.0831
_refine_ls_R_factor_gt           0.0435
_refine_ls_wR_factor_ref         0.1171
_refine_ls_wR_factor_gt          0.0993
_refine_ls_goodness_of_fit_ref   1.003
_refine_ls_restrained_S_all      1.003
_refine_ls_shift/su_max          0.001
_refine_ls_shift/su_mean         0.000

loop_
_atom_site_label
_atom_site_type_symbol
_atom_site_fract_x
_atom_site_fract_y
_atom_site_fract_z
_atom_site_U_iso_or_equiv
_atom_site_adp_type
_atom_site_occupancy
_atom_site_symmetry_multiplicity
_atom_site_calc_flag
_atom_site_refinement_flags
_atom_site_disorder_assembly
_atom_site_disorder_group
O1 O 0.41151(16) -0.0471(5) 0.35511(12) 0.0618(7) Uani 1 1 d . . .
O2 O 0.47663(16) 0.2537(5) 0.43340(12) 0.0605(7) Uani 1 1 d D . .
O3 O 0.35580(15) -0.0283(4) 0.53695(11) 0.0607(7) Uani 1 1 d . . .
O4 O 0.19793(15) 0.0115(5) 0.49406(12) 0.0553(6) Uani 1 1 d D . .
O5 O 0.50619(17) 0.5810(5) 0.72544(11) 0.0633(7) Uani 1 1 d . . .
O6 O 0.41990(17) 0.9019(5) 0.75089(12) 0.0675(7) Uani 1 1 d . . .
O7 O 0.07675(18) 0.9529(5) 0.65120(14) 0.0795(8) Uani 1 1 d . . .
O8 O 0.00948(17) 0.6733(6) 0.57444(14) 0.0846(9) Uani 1 1 d . . .
N1 N 0.22072(17) 0.6476(5) 0.41164(12) 0.0401(7) Uani 1 1 d . . .
N2 N 0.0798(2) 0.7608(6) 0.61544(16) 0.0567(8) Uani 1 1 d . . .
N3 N 0.4291(2) 0.6999(6) 0.71959(13) 0.0504(7) Uani 1 1 d . . .
C1 C 0.4053(2) 0.1504(7) 0.38649(16) 0.0446(8) Uani 1 1 d . . .
C2 C 0.3136(2) 0.3068(6) 0.37619(14) 0.0370(7) Uani 1 1 d . . .
C3 C 0.2344(2) 0.2486(6) 0.32351(15) 0.0458(8) Uani 1 1 d . . .
H3A H 0.2385 0.1107 0.2936 0.055 Uiso 1 1 calc R . .
C4 C 0.1501(2) 0.3915(7) 0.31475(16) 0.0514(9) Uani 1 1 d . . .
H4A H 0.0969 0.3542 0.2787 0.062 Uiso 1 1 calc R . .
C5 C 0.1452(2) 0.5904(7) 0.35985(15) 0.0469(8) Uani 1 1 d . . .
H5A H 0.0878 0.6883 0.3543 0.056 Uiso 1 1 calc R . .
C6 C 0.3042(2) 0.5108(6) 0.41948(15) 0.0408(8) Uani 1 1 d . . .
H6A H 0.3572 0.5549 0.4551 0.049 Uiso 1 1 calc R . .
C7 C 0.2768(2) 0.0757(6) 0.53474(15) 0.0390(8) Uani 1 1 d . . .
C8 C 0.2693(2) 0.2985(6) 0.58245(14) 0.0363(7) Uani 1 1 d . . .
C9 C 0.1798(2) 0.4200(6) 0.57840(14) 0.0414(8) Uani 1 1 d . . .
H9A H 0.1243 0.3625 0.5468 0.050 Uiso 1 1 calc R . .
C10 C 0.1743(2) 0.6265(6) 0.62169(15) 0.0410(8) Uani 1 1 d . . .
C11 C 0.2539(2) 0.7186(6) 0.66891(15) 0.0433(8) Uani 1 1 d . . .
H11A H 0.2487 0.8585 0.6980 0.052 Uiso 1 1 calc R . .
C12 C 0.3415(2) 0.5958(6) 0.67154(14) 0.0401(8) Uani 1 1 d . . .
C13 C 0.3516(2) 0.3881(6) 0.62965(14) 0.0395(8) Uani 1 1 d . . .
H13A H 0.4123 0.3089 0.6328 0.047 Uiso 1 1 calc R . .
H2 H 0.215(3) -0.113(7) 0.4633(18) 0.14(2) Uiso 1 1 d D . .
H1 H 0.5337(16) 0.155(6) 0.4418(18) 0.090(13) Uiso 1 1 d D . .

loop_
_atom_site_aniso_label
_atom_site_aniso_U_11
_atom_site_aniso_U_22
_atom_site_aniso_U_33
_atom_site_aniso_U_23
_atom_site_aniso_U_13
_atom_site_aniso_U_12
O1 0.0650(16) 0.0544(16) 0.0663(16) -0.0101(14) 0.0162(13) 0.0127(12)
O2 0.0413(14) 0.0652(17) 0.0688(16) -0.0135(14) 0.0003(13) 0.0086(13)
O3 0.0360(13) 0.0703(17) 0.0710(16) -0.0177(13) 0.0031(11) 0.0161(12)
O4 0.0419(14) 0.0590(16) 0.0588(14) -0.0235(13) -0.0009(12) 0.0090(11)
O5 0.0459(14) 0.0723(18) 0.0633(16) -0.0002(14) -0.0042(12) -0.0016(13)
O6 0.0708(17) 0.0564(17) 0.0661(16) -0.0174(14) -0.0023(13) -0.0120(13)
O7 0.0752(18) 0.0727(19) 0.094(2) -0.0284(17) 0.0259(15) 0.0201(14)
O8 0.0433(15) 0.104(2) 0.100(2) -0.0279(18) 0.0041(15) 0.0165(15)
N1 0.0354(15) 0.0413(16) 0.0403(15) 0.0000(12) 0.0023(13) 0.0003(12)
N2 0.052(2) 0.058(2) 0.063(2) -0.0035(17) 0.0189(17) 0.0085(16)
N3 0.058(2) 0.0508(19) 0.0379(16) 0.0017(15) 0.0011(15) -0.0128(16)
C1 0.045(2) 0.047(2) 0.043(2) 0.0031(18) 0.0137(17) 0.0007(17)
C2 0.0388(18) 0.0371(18) 0.0360(18) 0.0013(15) 0.0105(15) -0.0028(14)
C3 0.049(2) 0.045(2) 0.0418(19) -0.0072(16) 0.0073(17) 0.0012(17)
C4 0.045(2) 0.058(2) 0.044(2) -0.0059(18) -0.0028(16) -0.0011(17)
C5 0.0366(18) 0.051(2) 0.050(2) 0.0005(18) 0.0045(17) 0.0029(15)
C6 0.0365(18) 0.042(2) 0.0410(18) 0.0025(16) 0.0027(15) -0.0020(15)
C7 0.040(2) 0.0385(19) 0.0372(18) 0.0049(15) 0.0054(16) 0.0015(16)
C8 0.0379(18) 0.0343(18) 0.0357(17) 0.0026(14) 0.0065(15) 0.0012(14)
C9 0.0382(18) 0.044(2) 0.0418(19) 0.0024(16) 0.0090(15) 0.0011(15)
C10 0.0386(19) 0.0415(19) 0.0453(19) 0.0001(16) 0.0148(16) 0.0032(15)
C11 0.054(2) 0.0375(19) 0.0399(19) -0.0037(15) 0.0151(17) -0.0056(17)
C12 0.0426(19) 0.0414(19) 0.0342(17) 0.0017(16) 0.0048(15) -0.0053(15)
C13 0.0359(18) 0.042(2) 0.0392(17) 0.0062(16) 0.0056(15) 0.0015(14)

_geom_special_details            
;
All esds (except the esd in the dihedral angle between two l.s. planes)
are estimated using the full covariance matrix.  The cell esds are taken
into account individually in the estimation of esds in distances, angles
and torsion angles; correlations between esds in cell parameters are only
used when they are defined by crystal symmetry.  An approximate (isotropic)
treatment of cell esds is used for estimating esds involving l.s. planes.
;

loop_
_geom_bond_atom_site_label_1
_geom_bond_atom_site_label_2
_geom_bond_distance
_geom_bond_site_symmetry_2
_geom_bond_publ_flag
O1 C1 1.194(4) . ?
O2 C1 1.312(4) . ?
O2 H1 0.925(10) . ?
O3 C7 1.219(3) . ?
O4 C7 1.256(3) . ?
O4 H2 0.949(10) . ?
O5 N3 1.219(3) . ?
O6 N3 1.221(3) . ?
O7 N2 1.214(3) . ?
O8 N2 1.212(3) . ?
N1 C5 1.333(4) . ?
N1 C6 1.339(3) . ?
N2 C10 1.469(4) . ?
N3 C12 1.472(4) . ?
C1 C2 1.483(4) . ?
C2 C3 1.376(4) . ?
C2 C6 1.374(4) . ?
C3 C4 1.363(4) . ?
C3 H3A 0.9300 . ?
C4 C5 1.365(4) . ?
C4 H4A 0.9300 . ?
C5 H5A 0.9300 . ?
C6 H6A 0.9300 . ?
C7 C8 1.498(4) . ?
C8 C9 1.384(4) . ?
C8 C13 1.388(4) . ?
C9 C10 1.372(4) . ?
C9 H9A 0.9300 . ?
C10 C11 1.368(4) . ?
C11 C12 1.369(4) . ?
C11 H11A 0.9300 . ?
C12 C13 1.373(4) . ?
C13 H13A 0.9300 . ?

loop_
_geom_angle_atom_site_label_1
_geom_angle_atom_site_label_2
_geom_angle_atom_site_label_3
_geom_angle
_geom_angle_site_symmetry_1
_geom_angle_site_symmetry_3
_geom_angle_publ_flag
C1 O2 H1 114(2) . . ?
C7 O4 H2 106(3) . . ?
C5 N1 C6 119.7(3) . . ?
O8 N2 O7 123.8(3) . . ?
O8 N2 C10 117.8(3) . . ?
O7 N2 C10 118.4(3) . . ?
O5 N3 O6 124.1(3) . . ?
O5 N3 C12 118.3(3) . . ?
O6 N3 C12 117.6(3) . . ?
O1 C1 O2 125.0(3) . . ?
O1 C1 C2 122.6(3) . . ?
O2 C1 C2 112.4(3) . . ?
C3 C2 C6 117.8(3) . . ?
C3 C2 C1 120.9(3) . . ?
C6 C2 C1 121.3(3) . . ?
C4 C3 C2 120.6(3) . . ?
C4 C3 H3A 119.7 . . ?
C2 C3 H3A 119.7 . . ?
C3 C4 C5 118.7(3) . . ?
C3 C4 H4A 120.6 . . ?
C5 C4 H4A 120.6 . . ?
N1 C5 C4 121.5(3) . . ?
N1 C5 H5A 119.2 . . ?
C4 C5 H5A 119.2 . . ?
N1 C6 C2 121.6(3) . . ?
N1 C6 H6A 119.2 . . ?
C2 C6 H6A 119.2 . . ?
O3 C7 O4 124.7(3) . . ?
O3 C7 C8 120.0(3) . . ?
O4 C7 C8 115.2(3) . . ?
C9 C8 C13 119.7(3) . . ?
C9 C8 C7 119.6(3) . . ?
C13 C8 C7 120.6(3) . . ?
C10 C9 C8 119.1(3) . . ?
C10 C9 H9A 120.5 . . ?
C8 C9 H9A 120.5 . . ?
C11 C10 C9 122.6(3) . . ?
C11 C10 N2 118.6(3) . . ?
C9 C10 N2 118.8(3) . . ?
C10 C11 C12 117.1(3) . . ?
C10 C11 H11A 121.5 . . ?
C12 C11 H11A 121.5 . . ?
C11 C12 C13 122.9(3) . . ?
C11 C12 N3 118.1(3) . . ?
C13 C12 N3 119.0(3) . . ?
C12 C13 C8 118.6(3) . . ?
C12 C13 H13A 120.7 . . ?
C8 C13 H13A 120.7 . . ?

loop_
_geom_torsion_atom_site_label_1
_geom_torsion_atom_site_label_2
_geom_torsion_atom_site_label_3
_geom_torsion_atom_site_label_4
_geom_torsion
_geom_torsion_site_symmetry_1
_geom_torsion_site_symmetry_2
_geom_torsion_site_symmetry_3
_geom_torsion_site_symmetry_4
_geom_torsion_publ_flag
O1 C1 C2 C3 -8.3(5) . . . . ?
O2 C1 C2 C3 172.0(3) . . . . ?
O1 C1 C2 C6 170.5(3) . . . . ?
O2 C1 C2 C6 -9.2(4) . . . . ?
C6 C2 C3 C4 0.5(4) . . . . ?
C1 C2 C3 C4 179.4(3) . . . . ?
C2 C3 C4 C5 -1.0(5) . . . . ?
C6 N1 C5 C4 1.1(4) . . . . ?
C3 C4 C5 N1 0.2(5) . . . . ?
C5 N1 C6 C2 -1.6(4) . . . . ?
C3 C2 C6 N1 0.8(4) . . . . ?
C1 C2 C6 N1 -178.0(3) . . . . ?
O3 C7 C8 C9 178.3(3) . . . . ?
O4 C7 C8 C9 -1.2(4) . . . . ?
O3 C7 C8 C13 -0.3(4) . . . . ?
O4 C7 C8 C13 -179.8(3) . . . . ?
C13 C8 C9 C10 -0.4(4) . . . . ?
C7 C8 C9 C10 -179.0(3) . . . . ?
C8 C9 C10 C11 0.2(4) . . . . ?
C8 C9 C10 N2 177.8(3) . . . . ?
O8 N2 C10 C11 -178.4(3) . . . . ?
O7 N2 C10 C11 2.0(4) . . . . ?
O8 N2 C10 C9 3.9(4) . . . . ?
O7 N2 C10 C9 -175.8(3) . . . . ?
C9 C10 C11 C12 0.2(4) . . . . ?
N2 C10 C11 C12 -177.4(3) . . . . ?
C10 C11 C12 C13 -0.3(4) . . . . ?
C10 C11 C12 N3 177.0(2) . . . . ?
O5 N3 C12 C11 175.2(3) . . . . ?
O6 N3 C12 C11 -5.2(4) . . . . ?
O5 N3 C12 C13 -7.3(4) . . . . ?
O6 N3 C12 C13 172.3(3) . . . . ?
C11 C12 C13 C8 0.1(4) . . . . ?
N3 C12 C13 C8 -177.3(2) . . . . ?
C9 C8 C13 C12 0.3(4) . . . . ?
C7 C8 C13 C12 178.9(2) . . . . ?

_diffrn_measured_fraction_theta_max 0.996
_diffrn_reflns_theta_full        23.35
_diffrn_measured_fraction_theta_full 0.996
_refine_diff_density_max         0.179
_refine_diff_density_min         -0.217
_refine_diff_density_rms         0.053

